c File: data_files/evolved_graphs/g6175.col
c
c Auto generated graph
c
p edge 100 590
e 1 6
e 1 23
e 1 49
e 1 67
e 1 72
e 1 78
e 1 80
e 1 82
e 1 88
e 1 91
e 1 94
e 1 95
e 2 24
e 2 30
e 2 36
e 2 37
e 2 46
e 2 47
e 2 66
e 2 77
e 2 81
e 2 82
e 2 83
e 2 85
e 2 88
e 2 90
e 3 36
e 3 48
e 3 49
e 3 57
e 3 71
e 3 73
e 3 74
e 3 76
e 3 84
e 3 88
e 3 95
e 3 96
e 3 100
e 4 10
e 4 16
e 4 25
e 4 51
e 4 57
e 4 64
e 4 74
e 4 76
e 4 87
e 4 88
e 4 91
e 4 97
e 5 11
e 5 12
e 5 15
e 5 24
e 5 25
e 5 37
e 5 50
e 5 60
e 5 62
e 5 67
e 5 72
e 5 73
e 5 86
e 6 37
e 6 40
e 6 54
e 6 62
e 6 65
e 6 66
e 6 67
e 6 68
e 6 76
e 6 80
e 6 88
e 6 92
e 6 93
e 6 99
e 7 9
e 7 42
e 7 48
e 7 50
e 7 52
e 7 76
e 7 90
e 7 91
e 8 27
e 8 46
e 8 48
e 8 56
e 8 60
e 8 64
e 8 67
e 8 68
e 8 69
e 8 74
e 8 75
e 8 81
e 9 17
e 9 38
e 9 46
e 9 58
e 9 59
e 9 61
e 9 63
e 9 74
e 9 77
e 9 79
e 9 80
e 9 89
e 9 93
e 10 19
e 10 33
e 10 43
e 10 55
e 10 58
e 10 59
e 10 75
e 10 91
e 10 95
e 11 18
e 11 21
e 11 35
e 11 50
e 11 54
e 11 56
e 11 59
e 11 68
e 11 89
e 11 92
e 11 97
e 11 98
e 12 13
e 12 37
e 12 41
e 12 49
e 12 55
e 12 60
e 12 87
e 12 89
e 12 91
e 12 92
e 12 94
e 13 16
e 13 19
e 13 24
e 13 28
e 13 31
e 13 35
e 13 40
e 13 53
e 13 69
e 13 89
e 13 91
e 13 92
e 13 93
e 14 15
e 14 19
e 14 27
e 14 33
e 14 40
e 14 44
e 14 67
e 14 77
e 14 90
e 14 97
e 15 43
e 15 66
e 15 69
e 15 71
e 15 78
e 15 79
e 15 87
e 15 94
e 16 24
e 16 33
e 16 35
e 16 38
e 16 39
e 16 43
e 16 44
e 16 58
e 16 72
e 16 87
e 16 88
e 17 24
e 17 32
e 17 33
e 17 40
e 17 45
e 17 70
e 17 75
e 17 79
e 17 82
e 17 88
e 17 97
e 18 24
e 18 29
e 18 31
e 18 33
e 18 44
e 18 54
e 18 61
e 18 63
e 18 69
e 18 78
e 18 81
e 18 84
e 18 96
e 18 97
e 19 25
e 19 28
e 19 29
e 19 31
e 19 46
e 19 48
e 19 55
e 19 72
e 19 86
e 19 89
e 19 95
e 20 31
e 20 46
e 20 47
e 20 49
e 20 63
e 20 66
e 20 72
e 20 74
e 20 75
e 20 83
e 20 85
e 20 98
e 21 39
e 21 41
e 21 49
e 21 51
e 21 68
e 21 71
e 21 75
e 21 90
e 21 93
e 21 97
e 22 31
e 22 36
e 22 41
e 22 43
e 22 45
e 22 61
e 22 67
e 22 68
e 22 73
e 23 25
e 23 26
e 23 27
e 23 35
e 23 41
e 23 54
e 23 56
e 23 63
e 23 73
e 23 91
e 24 41
e 24 52
e 24 55
e 24 67
e 24 69
e 24 96
e 25 29
e 25 40
e 25 41
e 25 56
e 25 68
e 25 74
e 25 84
e 25 99
e 26 27
e 26 29
e 26 36
e 26 46
e 26 47
e 26 49
e 26 52
e 26 53
e 26 61
e 26 62
e 26 65
e 26 70
e 26 92
e 27 33
e 27 34
e 27 35
e 27 37
e 27 43
e 27 45
e 27 46
e 27 49
e 27 52
e 27 64
e 27 86
e 27 95
e 28 32
e 28 37
e 28 39
e 28 44
e 28 45
e 28 46
e 28 51
e 28 56
e 29 32
e 29 36
e 29 40
e 29 50
e 29 65
e 30 33
e 30 34
e 30 35
e 30 47
e 30 48
e 30 65
e 30 79
e 30 82
e 30 91
e 30 97
e 30 99
e 31 33
e 31 34
e 31 43
e 31 46
e 31 51
e 31 54
e 32 47
e 32 57
e 32 59
e 32 60
e 32 64
e 32 79
e 32 96
e 33 37
e 33 39
e 33 43
e 33 50
e 33 59
e 33 63
e 33 70
e 33 85
e 33 99
e 34 45
e 34 51
e 34 52
e 34 55
e 34 60
e 34 82
e 34 84
e 34 99
e 35 40
e 35 43
e 35 48
e 35 52
e 35 61
e 35 66
e 35 91
e 36 39
e 36 42
e 36 45
e 36 46
e 36 55
e 36 63
e 36 66
e 36 67
e 37 38
e 37 46
e 37 57
e 37 70
e 37 83
e 37 84
e 38 44
e 38 45
e 38 59
e 38 65
e 38 78
e 38 83
e 38 100
e 39 44
e 39 48
e 39 51
e 39 62
e 39 64
e 39 83
e 39 85
e 39 91
e 39 94
e 39 99
e 40 76
e 40 81
e 40 83
e 40 90
e 40 99
e 40 100
e 41 47
e 41 63
e 41 66
e 41 68
e 41 87
e 42 44
e 42 54
e 42 64
e 42 68
e 42 70
e 42 86
e 42 91
e 43 56
e 43 68
e 43 71
e 43 94
e 44 61
e 44 80
e 44 99
e 45 74
e 45 77
e 45 98
e 46 50
e 46 57
e 46 87
e 47 48
e 47 53
e 47 72
e 47 76
e 47 100
e 48 49
e 48 50
e 48 62
e 48 66
e 49 69
e 49 77
e 49 99
e 50 53
e 50 60
e 50 80
e 50 98
e 51 52
e 51 70
e 51 73
e 51 76
e 51 79
e 52 70
e 52 80
e 52 84
e 52 87
e 52 96
e 53 70
e 53 71
e 53 74
e 53 81
e 54 59
e 54 60
e 54 62
e 54 71
e 54 77
e 54 83
e 55 58
e 55 61
e 55 78
e 55 85
e 55 92
e 56 77
e 56 80
e 56 94
e 56 97
e 56 100
e 57 64
e 57 71
e 57 85
e 57 87
e 57 89
e 57 97
e 58 62
e 58 63
e 58 65
e 58 73
e 58 77
e 58 81
e 58 87
e 59 69
e 59 72
e 59 85
e 59 89
e 60 61
e 60 75
e 60 88
e 60 93
e 60 95
e 61 62
e 61 99
e 62 86
e 63 64
e 63 86
e 63 100
e 64 81
e 64 85
e 64 86
e 65 67
e 65 83
e 65 94
e 65 96
e 65 97
e 66 70
e 66 74
e 66 78
e 66 88
e 66 89
e 67 72
e 67 97
e 68 70
e 68 72
e 68 73
e 68 74
e 68 96
e 69 73
e 69 75
e 69 91
e 69 92
e 69 99
e 70 73
e 71 80
e 72 87
e 73 75
e 73 76
e 73 85
e 73 100
e 74 76
e 74 81
e 74 90
e 74 96
e 75 80
e 75 91
e 76 94
e 76 95
e 77 80
e 77 81
e 77 83
e 77 87
e 77 89
e 77 97
e 78 88
e 78 94
e 78 97
e 78 98
e 78 100
e 79 87
e 79 90
e 79 95
e 79 96
e 80 86
e 80 92
e 80 96
e 81 84
e 81 90
e 82 86
e 82 88
e 82 94
e 82 99
e 83 85
e 83 94
e 83 95
e 83 98
e 84 87
e 84 93
e 84 95
e 85 92
e 85 93
e 85 94
e 86 88
e 87 90
e 87 92
e 88 96
e 88 100
e 89 94
e 89 98
e 89 99
e 90 91
e 90 96
e 91 97
e 91 98
e 92 93
e 93 95
e 95 98
e 98 99
e 98 100
e 99 100
